09-routing/solutions/XSH-n20-k4-04.opt.sol
Route #1: 17 19 4 13 12 2
Route #2: 1 8 6 7 18
Route #3: 3 16 11 15
Route #4: 5 9 14 20 10
Cost 776
